  Job Started  at 15:00.47 19th June       2019

  Number of CPUs =     1

  Total number of configurations input =      1

*  Input for Configuration =   1                                               *

  Formula = ZnS

  Number of irreducible atoms/shells =       2

  Total number atoms/shells =       2

  Dimensionality = 3               :  Bulk

  Cartesian lattice vectors (Angstroms) :

        3.854000    0.000000    0.000000
        1.927000    3.337662    0.000000
        1.927000    1.112554    3.146778

  Cell parameters (Angstroms/Degrees):

  a =       3.8540    alpha =  60.0000
  b =       3.8540    beta  =  60.0000
  c =       3.8540    gamma =  60.0000

  Initial cell volume =          40.478101 Angs**3

  Shrinking factors =     10     1     1

  Temperature of configuration =  0.000     K

  Pressure of configuration =         0.000 GPa

  Fractional coordinates of asymmetric unit :

   No.  Atomic       x           y          z         Charge      Occupancy
        Label      (Frac)      (Frac)     (Frac)        (e)         (Frac)
      1 Zn    c    0.000000    0.000000    0.000000     2.00000    1.000000
      2 S     c    0.250000    0.250000    0.250000    -2.00000    1.000000

  Brillouin zone sampling points :

  Point number          x          y          z            Weight
        1           0.000000   0.000000   0.000000     0.01515152
        2           0.025000   0.000000   0.025000     0.01515152
        3           0.050000   0.000000   0.050000     0.01515152
        4           0.075000   0.000000   0.075000     0.01515152
        5           0.100000   0.000000   0.100000     0.01515152
        6           0.125000   0.000000   0.125000     0.01515152
        7           0.150000   0.000000   0.150000     0.01515152
        8           0.175000   0.000000   0.175000     0.01515152
        9           0.200000   0.000000   0.200000     0.01515152
       10           0.225000   0.000000   0.225000     0.01515152
       11           0.250000   0.000000   0.250000     0.01515152
       12           0.275000   0.000000   0.275000     0.01515152
       13           0.300000   0.000000   0.300000     0.01515152
       14           0.325000   0.000000   0.325000     0.01515152
       15           0.350000   0.000000   0.350000     0.01515152
       16           0.375000   0.000000   0.375000     0.01515152
       17           0.400000   0.000000   0.400000     0.01515152
       18           0.425000   0.000000   0.425000     0.01515152
       19           0.450000   0.000000   0.450000     0.01515152
       20           0.475000   0.000000   0.475000     0.01515152
       21           0.500000   0.000000   0.500000     0.01515152
       22           0.525000   0.050000   0.525000     0.01515152
       23           0.550000   0.100000   0.550000     0.01515152
       24           0.575000   0.150000   0.575000     0.01515152
       25           0.600000   0.200000   0.600000     0.01515152
       26           0.625000   0.250000   0.625000     0.01515152
       27           0.650000   0.300000   0.650000     0.01515152
       28           0.675000   0.350000   0.675000     0.01515152
       29           0.700000   0.400000   0.700000     0.01515152
       30           0.725000   0.450000   0.725000     0.01515152
       31           0.750000   0.500000   0.750000     0.01515152
       32           0.775000   0.550000   0.775000     0.01515152
       33           0.800000   0.600000   0.800000     0.01515152
       34           0.825000   0.650000   0.825000     0.01515152
       35           0.850000   0.700000   0.850000     0.01515152
       36           0.875000   0.750000   0.875000     0.01515152
       37           0.900000   0.800000   0.900000     0.01515152
       38           0.925000   0.850000   0.925000     0.01515152
       39           0.950000   0.900000   0.950000     0.01515152
       40           0.975000   0.950000   0.975000     0.01515152
       41           0.000000   0.000000   0.000000     0.01515152
       42           0.975000   0.975000   0.975000     0.01515152
       43           0.950000   0.950000   0.950000     0.01515152
       44           0.925000   0.925000   0.925000     0.01515152
       45           0.900000   0.900000   0.900000     0.01515152
       46           0.875000   0.875000   0.875000     0.01515152
       47           0.850000   0.850000   0.850000     0.01515152
       48           0.825000   0.825000   0.825000     0.01515152
       49           0.800000   0.800000   0.800000     0.01515152
       50           0.775000   0.775000   0.775000     0.01515152
       51           0.750000   0.750000   0.750000     0.01515152
       52           0.725000   0.725000   0.725000     0.01515152
       53           0.700000   0.700000   0.700000     0.01515152
       54           0.675000   0.675000   0.675000     0.01515152
       55           0.650000   0.650000   0.650000     0.01515152
       56           0.625000   0.625000   0.625000     0.01515152
       57           0.600000   0.600000   0.600000     0.01515152
       58           0.575000   0.575000   0.575000     0.01515152
       59           0.550000   0.550000   0.550000     0.01515152
       60           0.525000   0.525000   0.525000     0.01515152
       61           0.500000   0.500000   0.500000     0.01515152
       62           0.050000   0.500000   0.500000     0.01515152
       63           0.150000   0.500000   0.500000     0.01515152
       64           0.250000   0.500000   0.500000     0.01515152
       65           0.350000   0.500000   0.500000     0.01515152
       66           0.450000   0.500000   0.500000     0.01515152

*  General input information                                                   *

  Species output for all configurations :

  Species    Type    Atomic    Atomic    Charge       Radii (Angs)     Library
                     Number     Mass       (e)     Cova   Ionic  VDW   Symbol
    Zn       Core       30      65.39   2.000000   1.450  0.000  2.160
    S        Core       16      32.07  -2.000000   1.020  0.000  1.700

  Lattice summation method               =    Ewald          (3-D)
                                         =    Parry          (2-D)
                                         =    Saunders et al (1-D)
  Accuracy factor for lattice sums       =   12.000

  Time limit = Infinity

  Maximum range for interatomic potentials =    100000.000000 Angstroms

  General interatomic potentials :

Atom  Types   Potential      Parameter       Value         Units   Cutoffs(Ang)
  1     2                                                            Min /  Max
S    c Zn   c Force const   Longitudinal K  -5.9118240    eV*Ang^-2 0.000  2.400
                            Transverse   K  0.34649500    eV*Ang^-2
Zn   c Zn   c Force const   Longitudinal K -0.18200700    eV*Ang^-2 2.400  3.900
                            Transverse   K -0.94400000E-01eV*Ang^-2
S    c S    c Force const   Longitudinal K -0.18200700    eV*Ang^-2 2.400  3.900
                            Transverse   K -0.94400000E-01eV*Ang^-2
S    c Zn   c Force const   Longitudinal K -0.89500000E-01eV*Ang^-2 3.900  4.600
                            Transverse   K -0.39900000E-01eV*Ang^-2
S    c Zn   c Force const   Longitudinal K  0.45700000E-01eV*Ang^-2 4.600  6.000
                            Transverse   K -0.18490000E-01eV*Ang^-2

*  Output for configuration   1                                                *

  Components of energy :

  Interatomic potentials     =           0.00000000 eV
  Monopole - monopole (real) =          -6.18803544 eV
  Monopole - monopole (recip)=         -33.78953034 eV
  Monopole - monopole (total)=         -39.97756578 eV
  Total lattice energy       =         -39.97756578 eV
  Total lattice energy       =           -3857.2240 kJ/(mole unit cells)

  Born effective charge tensors :

  Atom             x           y             z
    1 Zn    x       2.0000      0.0000      0.0000
            y       0.0000      2.0000      0.0000
            z       0.0000      0.0000      2.0000
    2 S     x      -2.0000      0.0000      0.0000
            y       0.0000     -2.0000      0.0000
            z       0.0000      0.0000     -2.0000

  Elastic Constant Matrix: (Units=GPa)

  Indices      1         2         3         4         5         6
       1     70.3339 -165.1362 -213.1888   67.9566   -0.0000   -0.0000
       2   -165.1362   70.3339 -213.1888  -67.9566    0.0000    0.0000
       3   -213.1888 -213.1888  118.3865    0.0000    0.0000    0.0000
       4     67.9566  -67.9566    0.0000   69.6825    0.0000   -0.0000
       5     -0.0000    0.0000    0.0000    0.0000   69.6825   67.9566
       6     -0.0000    0.0000    0.0000   -0.0000   67.9566  117.7350

  Elastic Constant Tensor Eigenvalues: (Units=GPa)

     1 =  -307.9910     2 =    21.6299     3 =    25.6606
     4 =   165.7876     5 =   279.4919     6 =   331.5753
  No. of non-positive eigenvalues = 1 => system is elastically unstable

  Elastic Compliance Matrix: (Units=1/GPa)

  Indices      1         2         3         4         5         6
       1    0.004278 -0.005438 -0.002088 -0.009475  0.000000  0.000000
       2   -0.005438  0.004278 -0.002088  0.009475  0.000000 -0.000000
       3   -0.002088 -0.002088  0.000928 -0.000000 -0.000000  0.000000
       4   -0.009475  0.009475 -0.000000  0.032832 -0.000000 -0.000000
       5    0.000000  0.000000 -0.000000 -0.000000  0.032832 -0.018951
       6    0.000000 -0.000000  0.000000 -0.000000 -0.018951  0.019432

  Mechanical properties :

  Convention :                    Reuss         Voigt         Hill
  Bulk  Modulus (GPa)     =    -102.66368    -102.66368    -102.66368
  Shear Modulus (GPa)     =      45.22428     108.12453      76.67441
  Velocity S-wave (km/s)  =       3.36322       5.20033       4.37919
  Velocity P-wave (km/s)  =       3.25515       3.22185       0.32838
  Compressibility (1/GPa) =   -0.00974054
  Stress axis :                     x             y             z
  Youngs Moduli (GPa)     =     233.73420     233.73420    1077.21263
  Poissons Ratio (x)      =                     1.27096       2.24877
  Poissons Ratio (y)      =       1.27096                     2.24877
  Poissons Ratio (z)      =       0.48794       0.48794

  Piezoelectric Strain Matrix: (Units=C/m**2)

  Indices      1         2         3         4         5         6
       x    -0.00000   0.00000   0.00000  -0.00000  12.77029  18.05992
       y    18.05992 -18.05992   0.00000  12.77029  -0.00000  -0.00000
       z    12.77029  12.77029 -25.54058   0.00000   0.00000  -0.00000

  Piezoelectric Stress Matrix: (Units=10**-11 C/N)

  Indices      1         2         3         4         5         6
       x     0.00000  -0.00000  -0.00000  -0.00000   7.70280  10.89341
       y     5.44670  -5.44670  -0.00000   7.70280  -0.00000   0.00000
       z     3.85140   3.85140  -7.70280   0.00000   0.00000  -0.00000

  Static dielectric constant tensor :

              x         y         z
       x    -0.31857   0.00000   0.00000
       y     0.00000  -0.31857   0.00000
       z     0.00000   0.00000  -0.31857

  Static refractive indices :

    1 =   -0.56442      2 =   -0.56442      3 =   -0.56442

  Phonon Calculation :

  K direction for n-a correction at gamma =  1.00000  0.00000  0.00000

  Number of k points for this configuration =       66

  K point      1 =   0.000000  0.000000  0.000000  Weight =    0.015

  Frequencies (cm-1) [NB: Negative implies an imaginary mode]:

[...]

  K point     66 =   0.450000  0.500000  0.500000  Weight =    0.015

  Frequencies (cm-1) [NB: Negative implies an imaginary mode]:

 -444.32 -443.25 -374.78  128.92  139.01  391.84

  Phonon properties (per mole of unit cells): Temperature =      0.000 K
  Zero point energy            =        0.030027 eV

  Phonon density of states :

 Frequency (cm-1) Density of States
    0.00000 |*********************                                         0.022
    6.15068 |****************                                              0.017
   12.30135 |*****                                                         0.006
   18.45203 |***************************                                   0.028
   24.60271 |*****                                                         0.006
   30.75338 |****************                                              0.017
   36.90406 |*********************                                         0.022
   43.05473 |*********************                                         0.022
   49.20541 |**********                                                    0.011
   55.35609 |***************************                                   0.028
   61.50676 |****************                                              0.017
   67.65744 |***************************                                   0.028
   73.80812 |***************************                                   0.028
   79.95879 |****************                                              0.017
   86.10947 |****************                                              0.017
   92.26015 |*********************                                         0.022
   98.41082 |**********                                                    0.011
  104.56150 |*********************                                         0.022
  110.71218 |*********************                                         0.022
  116.86285 |**********                                                    0.011
  123.01353 |********************************                              0.033
  129.16420 |************************************************************  0.061
  135.31488 |**********                                                    0.011
  141.46556 |**********                                                    0.011
  147.61623 |*****                                                         0.006
  153.76691 |*****                                                         0.006
  159.91759 |**********                                                    0.011
  166.06826 |**********                                                    0.011
  172.21894 |****************                                              0.017
  178.36962 |*****                                                         0.006
  184.52029 |****************                                              0.017
  190.67097 |*****                                                         0.006
  196.82164 |****************                                              0.017
  202.97232 |**********                                                    0.011
  209.12300 |****************                                              0.017
  215.27367 |**********                                                    0.011
  221.42435 |****************                                              0.017
  227.57503 |*******************************************                   0.044
  233.72570 |*********************                                         0.022
  239.87638 |********************************                              0.033
  246.02706 |**************************************                        0.039
  252.17773 |**********                                                    0.011
  258.32841 |**********                                                    0.011
  264.47909 |                                                              0.000
  270.62976 |*****                                                         0.006
  276.78044 |**********                                                    0.011
  282.93111 |                                                              0.000
  289.08179 |*****                                                         0.006
  295.23247 |****************                                              0.017
  301.38314 |*****                                                         0.006
  307.53382 |                                                              0.000
  313.68450 |****************                                              0.017
  319.83517 |                                                              0.000
  325.98585 |**********                                                    0.011
  332.13653 |*****                                                         0.006
  338.28720 |*****                                                         0.006
  344.43788 |*********************                                         0.022
  350.58855 |*****                                                         0.006
  356.73923 |****************                                              0.017
  362.88991 |*********************                                         0.022
  369.04058 |*****                                                         0.006
  375.19126 |**********                                                    0.011
  381.34194 |**********                                                    0.011
  387.49261 |***************************                                   0.028

  Phonon density of states written on channel 17

  XYZ File written as gulp.xyz

  Time to end of properties =       0.0200 seconds

  Timing analysis for GULP :

  Task / Subroutine                                          Time (Seconds)
  Calculation of reciprocal space energy and derivatives          0.0040
  Calculation of real space energy and derivatives                0.0160
  Calculation of phonons                                          0.0160

  Job Finished at 15:00.47 19th June       2019