  Job Started  at 10:55.07 20th June       2019

  Number of CPUs =     1

  Total number of configurations input =      1

*  Input for Configuration =   1                                               *

  Formula = ZnS

  Number of irreducible atoms/shells =       3

  Total number atoms/shells =       3

  Dimensionality = 3               :  Bulk

  Cartesian lattice vectors (Angstroms) :

        3.854000    0.000000    0.000000
        1.927000    3.337662    0.000000
        1.927000    1.112554    3.146778

  Cell parameters (Angstroms/Degrees):

  a =       3.8540    alpha =  60.0000
  b =       3.8540    beta  =  60.0000
  c =       3.8540    gamma =  60.0000

  Initial cell volume =          40.478101 Angs**3

  Shrinking factors =      1     1     1

  Temperature of configuration =  0.000     K

  Pressure of configuration =         0.000 GPa

  Fractional coordinates of asymmetric unit :

   No.  Atomic       x           y          z         Charge      Occupancy
        Label      (Frac)      (Frac)     (Frac)        (e)         (Frac)
      1 Zn    c    0.000000    0.000000    0.000000     2.00000    1.000000
      2 S     c    0.250000    0.250000    0.250000     1.03061    1.000000
      3 S     s    0.250000    0.250000    0.250000    -3.03061    1.000000

  Brillouin zone sampling points :

  Point number          x          y          z            Weight
        1           0.000000   0.000000   0.000000     0.01626016
        2           0.025000   0.000000   0.025000     0.01626016
        3           0.050000   0.000000   0.050000     0.01626016
        4           0.075000   0.000000   0.075000     0.01626016
        5           0.100000   0.000000   0.100000     0.01626016
        6           0.125000   0.000000   0.125000     0.01626016
        7           0.150000   0.000000   0.150000     0.01626016
        8           0.175000   0.000000   0.175000     0.01626016
        9           0.200000   0.000000   0.200000     0.01626016
       10           0.225000   0.000000   0.225000     0.01626016
       11           0.250000   0.000000   0.250000     0.01626016
       12           0.275000   0.000000   0.275000     0.01626016
       13           0.300000   0.000000   0.300000     0.01626016
       14           0.325000   0.000000   0.325000     0.01626016
       15           0.350000   0.000000   0.350000     0.01626016
       16           0.375000   0.000000   0.375000     0.01626016
       17           0.400000   0.000000   0.400000     0.01626016
       18           0.425000   0.000000   0.425000     0.01626016
       19           0.450000   0.000000   0.450000     0.01626016
       20           0.475000   0.000000   0.475000     0.01626016
       21           0.500000   0.000000   0.500000     0.01626016
       22           0.525000   0.050000   0.525000     0.01626016
       23           0.550000   0.100000   0.550000     0.01626016
       24           0.575000   0.150000   0.575000     0.01626016
       25           0.600000   0.200000   0.600000     0.01626016
       26           0.625000   0.250000   0.625000     0.01626016
       27           0.650000   0.300000   0.650000     0.01626016
       28           0.675000   0.350000   0.675000     0.01626016
       29           0.700000   0.400000   0.700000     0.01626016
       30           0.725000   0.450000   0.725000     0.01626016
       31           0.750000   0.500000   0.750000     0.01626016
       32           0.775000   0.550000   0.775000     0.01626016
       33           0.800000   0.600000   0.800000     0.01626016
       34           0.825000   0.650000   0.825000     0.01626016
       35           0.850000   0.700000   0.850000     0.01626016
       36           0.875000   0.750000   0.875000     0.01626016
       37           0.900000   0.800000   0.900000     0.01626016
       38           0.925000   0.850000   0.925000     0.01626016
       39           0.950000   0.900000   0.950000     0.01626016
       40           0.975000   0.950000   0.975000     0.01626016
       41           0.000000   0.000000   0.000000     0.01626016
       42           0.975000   0.975000   0.975000     0.01626016
       43           0.950000   0.950000   0.950000     0.01626016
       44           0.925000   0.925000   0.925000     0.01626016
       45           0.900000   0.900000   0.900000     0.01626016
       46           0.875000   0.875000   0.875000     0.01626016
       47           0.850000   0.850000   0.850000     0.01626016
       48           0.825000   0.825000   0.825000     0.01626016
       49           0.800000   0.800000   0.800000     0.01626016
       50           0.775000   0.775000   0.775000     0.01626016
       51           0.750000   0.750000   0.750000     0.01626016
       52           0.725000   0.725000   0.725000     0.01626016
       53           0.700000   0.700000   0.700000     0.01626016
       54           0.675000   0.675000   0.675000     0.01626016
       55           0.650000   0.650000   0.650000     0.01626016
       56           0.625000   0.625000   0.625000     0.01626016
       57           0.600000   0.600000   0.600000     0.01626016
       58           0.575000   0.575000   0.575000     0.01626016
       59           0.550000   0.550000   0.550000     0.01626016
       60           0.525000   0.525000   0.525000     0.01626016
       61           0.500000   0.500000   0.500000     0.01626016
       62           0.500000   0.500000   0.500000     0.00813008

*  General input information                                                   *

  Species output for all configurations :

  Species    Type    Atomic    Atomic    Charge       Radii (Angs)     Library
                     Number     Mass       (e)     Cova   Ionic  VDW   Symbol
    Zn       Core       30      65.39   2.000000   1.450  0.000  2.160
    S        Core       16      32.07   1.030610   1.020  0.000  1.700
    S        Shell      16       0.00  -3.030610   1.020  0.000  0.000

  Lattice summation method               =    Ewald          (3-D)
                                         =    Parry          (2-D)
                                         =    Saunders et al (1-D)
  Accuracy factor for lattice sums       =   12.000

  Time limit = Infinity

  Maximum range for interatomic potentials =    100000.000000 Angstroms

  General interatomic potentials :

Atom  Types   Potential      Parameter       Value         Units   Cutoffs(Ang)
  1     2                                                            Min /  Max
Zn   c S    s Buckingham    Buckingham A     6379.8181    eV        0.000 12.000
                            Buckingham rho  0.27434600    Ang
                            Buckingham C     0.0000000    eV*Ang^6
S    s S    s Buckingham    Buckingham A     8177.3446    eV        0.000 12.000
                            Buckingham rho  0.22751700    Ang
                            Buckingham C     0.0000000    eV*Ang^6
S    c S    s Spring (c-s)  Spring k 2       11.929001    eV*Ang^-2 0.000  0.800
                            Spring k 4       0.0000000    eV*Ang^-4

*  Output for configuration   1                                                *

  Components of energy :

  Interatomic potentials     =           4.69370114 eV
  Monopole - monopole (real) =          -5.43835808 eV
  Monopole - monopole (recip)=         -34.53920770 eV
  Monopole - monopole (total)=         -39.97756578 eV
  Total lattice energy       =         -35.28386463 eV
  Total lattice energy       =           -3404.3536 kJ/(mole unit cells)

  Born effective charge tensors :

  Atom             x           y             z
    1 Zn    x       0.5228     -0.0000     -0.0000
            y      -0.0000      0.5228     -0.0000
            z      -0.0000     -0.0000      0.5228
    2 S     x      -0.5228      0.0000      0.0000
            y       0.0000     -0.5228      0.0000
            z       0.0000      0.0000     -0.5228

  Elastic Constant Matrix: (Units=GPa)

  Indices      1         2         3         4         5         6
       1    158.5559  102.8429   92.8184   14.1768   -0.0000   -0.0000
       2    102.8429  158.5559   92.8184  -14.1768    0.0000   -0.0000
       3     92.8184   92.8184  168.5804   -0.0000   -0.0000    0.0000
       4     14.1768  -14.1768   -0.0000   17.8320   -0.0000    0.0000
       5     -0.0000    0.0000   -0.0000   -0.0000   17.8320   14.1768
       6     -0.0000   -0.0000    0.0000    0.0000   14.1768   27.8565

  Elastic Constant Tensor Eigenvalues: (Units=GPa)

     1 =     7.8075     2 =     9.1917     3 =    37.8810
     4 =    64.3534     5 =    75.7620     6 =   354.2172

  Elastic Compliance Matrix: (Units=1/GPa)

  Indices      1         2         3         4         5         6
       1    0.018214 -0.011932 -0.003459 -0.023967  0.000000  0.000000
       2   -0.011932  0.018214 -0.003459  0.023967 -0.000000  0.000000
       3   -0.003459 -0.003459  0.009741  0.000000  0.000000 -0.000000
       4   -0.023967  0.023967  0.000000  0.094187  0.000000 -0.000000
       5    0.000000 -0.000000  0.000000  0.000000  0.094187 -0.047934
       6    0.000000  0.000000 -0.000000 -0.000000 -0.047934  0.060293

  Mechanical properties :

  Convention :                    Reuss         Voigt         Hill
  Bulk  Modulus (GPa)     =     118.07239     118.07239     118.07239
  Shear Modulus (GPa)     =      14.90943      25.85163      20.38053
  Velocity S-wave (km/s)  =       1.93108       2.54280       2.25775
  Velocity P-wave (km/s)  =       5.87398       6.17678       6.02728
  Compressibility (1/GPa) =    0.00846938
  Stress axis :                     x             y             z
  Youngs Moduli (GPa)     =      54.90251      54.90251     102.66389
  Poissons Ratio (x)      =                     0.65511       0.35508
  Poissons Ratio (y)      =       0.65511                     0.35508
  Poissons Ratio (z)      =       0.18989       0.18989

  Piezoelectric Strain Matrix: (Units=C/m**2)

  Indices      1         2         3         4         5         6
       x     0.00000   0.00000   0.00000   0.00000   3.73041   5.27560
       y     5.27560  -5.27560   0.00000   3.73041   0.00000   0.00000
       z     3.73041   3.73041  -7.46082   0.00000   0.00000   0.00000

  Piezoelectric Stress Matrix: (Units=10**-11 C/N)

  Indices      1         2         3         4         5         6
       x     0.00000   0.00000   0.00000   0.00000   9.84770  13.92676
       y     6.96338  -6.96338   0.00000   9.84770   0.00000   0.00000
       z     4.92385   4.92385  -9.84770  -0.00000  -0.00000   0.00000

  Static dielectric constant tensor :

              x         y         z
       x     4.07762  -0.00000  -0.00000
       y    -0.00000   4.07762  -0.00000
       z    -0.00000  -0.00000   4.07762

  High frequency dielectric constant tensor :

              x         y         z
       x     3.89298  -0.00000  -0.00000
       y    -0.00000   3.89298  -0.00000
       z    -0.00000  -0.00000   3.89298

  Static refractive indices :

[...]

  High frequency refractive indices :

    1 =    1.97306      2 =    1.97306      3 =    1.97306

  Phonon Calculation :

  K direction for n-a correction at gamma =  1.00000  0.00000  0.00000

  Number of k points for this configuration =       62

  K point      1 =   0.000000  0.000000  0.000000  Weight =    0.016

  Frequencies (cm-1) [NB: Negative implies an imaginary mode]:

[...]

  K point     62 =   0.500000  0.500000  0.500000  Weight =    0.008

  Frequencies (cm-1) [NB: Negative implies an imaginary mode]:

   62.35   62.35  209.39  304.07  304.07  325.60

  Phonon properties (per mole of unit cells): Temperature =      0.000 K
  Zero point energy            =        0.073133 eV

  Phonon density of states :

 Frequency (cm-1) Density of States
    0.00000 |**                                                            0.005
    5.16482 |******                                                        0.014
   10.32963 |****                                                          0.011
   15.49445 |********                                                      0.019
   20.65927 |***                                                           0.008
   25.82409 |*******                                                       0.016
   30.98890 |**********                                                    0.025
   36.15372 |***                                                           0.008
   41.31854 |******                                                        0.014
   46.48336 |********                                                      0.019
   51.64817 |**********                                                    0.025
   56.81299 |***************                                               0.036
   61.97781 |********                                                      0.019
   67.14263 |*******                                                       0.016
   72.30744 |****                                                          0.011
   77.47226 |********                                                      0.019
   82.63708 |*********                                                     0.022
   87.80190 |*******************                                           0.044
   92.96671 |**                                                            0.005
   98.13153 |****                                                          0.011
  103.29635 |*                                                             0.003
  108.46117 |*                                                             0.003
  113.62598 |**                                                            0.005
  118.79080 |****                                                          0.011
  123.95562 |*                                                             0.003
  129.12043 |****                                                          0.011
  134.28525 |**                                                            0.005
  139.45007 |**                                                            0.005
  144.61489 |                                                              0.000
  149.77970 |*                                                             0.003
  154.94452 |**                                                            0.005
  160.10934 |*                                                             0.003
  165.27416 |*                                                             0.003
  170.43897 |*                                                             0.003
  175.60379 |**                                                            0.005
  180.76861 |**                                                            0.005
  185.93343 |                                                              0.000
  191.09824 |**                                                            0.005
  196.26306 |**                                                            0.005
  201.42788 |****                                                          0.011
  206.59270 |****                                                          0.010
  211.75751 |**                                                            0.005
  216.92233 |                                                              0.000
  222.08715 |**                                                            0.005
  227.25197 |**                                                            0.005
  232.41678 |**                                                            0.005
  237.58160 |********                                                      0.019
  242.74642 |                                                              0.000
  247.91123 |                                                              0.000
  253.07605 |                                                              0.000
  258.24087 |                                                              0.000
  263.40569 |                                                              0.000
  268.57050 |                                                              0.000
  273.73532 |                                                              0.000
  278.90014 |****                                                          0.011
  284.06496 |*******                                                       0.016
  289.22977 |*******************************************                   0.099
  294.39459 |************************************************************  0.137
  299.55941 |******************************************                    0.096
  304.72423 |**********                                                    0.025
  309.88904 |**********                                                    0.025
  315.05386 |************************                                      0.055
  320.21868 |********                                                      0.019
  325.38350 |**********                                                    0.023

  Phonon density of states written on channel 17

  XYZ File written as gulp.xyz

  Time to end of properties =       0.0360 seconds

  Timing analysis for GULP :

  Task / Subroutine                                          Time (Seconds)
  Calculation of reciprocal space energy and derivatives          0.0080
  Calculation of real space energy and derivatives                0.0200
  Calculation of phonons                                          0.0320

  Job Finished at 10:55.07 20th June       2019