  Job Started  at 14:33.40 19th June       2019

  Number of CPUs =     1

  Total number of configurations input =      1

*  Input for Configuration =   1                                               *

  Formula = ZnS

  Number of irreducible atoms/shells =       2

  Total number atoms/shells =       2

  Dimensionality = 3               :  Bulk

  Cartesian lattice vectors (Angstroms) :

        3.854000    0.000000    0.000000
        1.927000    3.337662    0.000000
        1.927000    1.112554    3.146778

  Cell parameters (Angstroms/Degrees):

  a =       3.8540    alpha =  60.0000
  b =       3.8540    beta  =  60.0000
  c =       3.8540    gamma =  60.0000

  Initial cell volume =          40.478101 Angs**3

  Shrinking factors =      1     1     1

  Temperature of configuration =  0.000     K

  Pressure of configuration =         0.000 GPa

  Fractional coordinates of asymmetric unit :

   No.  Atomic       x           y          z         Charge      Occupancy
        Label      (Frac)      (Frac)     (Frac)        (e)         (Frac)
      1 Zn    c    0.000000    0.000000    0.000000     1.18000    1.000000
      2 S     c    0.250000    0.250000    0.250000    -1.18000    1.000000

  Brillouin zone sampling points :

  Point number          x          y          z            Weight
        1           0.000000   0.000000   0.000000     0.01626016
        2           0.025000   0.000000   0.025000     0.01626016
        3           0.050000   0.000000   0.050000     0.01626016
        4           0.075000   0.000000   0.075000     0.01626016
        5           0.100000   0.000000   0.100000     0.01626016
        6           0.125000   0.000000   0.125000     0.01626016
        7           0.150000   0.000000   0.150000     0.01626016
        8           0.175000   0.000000   0.175000     0.01626016
        9           0.200000   0.000000   0.200000     0.01626016
       10           0.225000   0.000000   0.225000     0.01626016
       11           0.250000   0.000000   0.250000     0.01626016
       12           0.275000   0.000000   0.275000     0.01626016
       13           0.300000   0.000000   0.300000     0.01626016
       14           0.325000   0.000000   0.325000     0.01626016
       15           0.350000   0.000000   0.350000     0.01626016
       16           0.375000   0.000000   0.375000     0.01626016
       17           0.400000   0.000000   0.400000     0.01626016
       18           0.425000   0.000000   0.425000     0.01626016
       19           0.450000   0.000000   0.450000     0.01626016
       20           0.475000   0.000000   0.475000     0.01626016
       21           0.500000   0.000000   0.500000     0.01626016
       22           0.525000   0.050000   0.525000     0.01626016
       23           0.550000   0.100000   0.550000     0.01626016
       24           0.575000   0.150000   0.575000     0.01626016
       25           0.600000   0.200000   0.600000     0.01626016
       26           0.625000   0.250000   0.625000     0.01626016
       27           0.650000   0.300000   0.650000     0.01626016
       28           0.675000   0.350000   0.675000     0.01626016
       29           0.700000   0.400000   0.700000     0.01626016
       30           0.725000   0.450000   0.725000     0.01626016
       31           0.750000   0.500000   0.750000     0.01626016
       32           0.775000   0.550000   0.775000     0.01626016
       33           0.800000   0.600000   0.800000     0.01626016
       34           0.825000   0.650000   0.825000     0.01626016
       35           0.850000   0.700000   0.850000     0.01626016
       36           0.875000   0.750000   0.875000     0.01626016
       37           0.900000   0.800000   0.900000     0.01626016
       38           0.925000   0.850000   0.925000     0.01626016
       39           0.950000   0.900000   0.950000     0.01626016
       40           0.975000   0.950000   0.975000     0.01626016
       41           0.000000   0.000000   0.000000     0.01626016
       42           0.975000   0.975000   0.975000     0.01626016
       43           0.950000   0.950000   0.950000     0.01626016
       44           0.925000   0.925000   0.925000     0.01626016
       45           0.900000   0.900000   0.900000     0.01626016
       46           0.875000   0.875000   0.875000     0.01626016
       47           0.850000   0.850000   0.850000     0.01626016
       48           0.825000   0.825000   0.825000     0.01626016
       49           0.800000   0.800000   0.800000     0.01626016
       50           0.775000   0.775000   0.775000     0.01626016
       51           0.750000   0.750000   0.750000     0.01626016
       52           0.725000   0.725000   0.725000     0.01626016
       53           0.700000   0.700000   0.700000     0.01626016
       54           0.675000   0.675000   0.675000     0.01626016
       55           0.650000   0.650000   0.650000     0.01626016
       56           0.625000   0.625000   0.625000     0.01626016
       57           0.600000   0.600000   0.600000     0.01626016
       58           0.575000   0.575000   0.575000     0.01626016
       59           0.550000   0.550000   0.550000     0.01626016
       60           0.525000   0.525000   0.525000     0.01626016
       61           0.500000   0.500000   0.500000     0.01626016
       62           0.500000   0.500000   0.500000     0.00813008

*  General input information                                                   *

  Species output for all configurations :

  Species    Type    Atomic    Atomic    Charge       Radii (Angs)     Library
                     Number     Mass       (e)     Cova   Ionic  VDW   Symbol
    Zn       Core       30      65.39   1.180000   1.450  0.000  2.160
    S        Core       16      32.07  -1.180000   1.020  0.000  1.700

  Lattice summation method               =    Ewald          (3-D)
                                         =    Parry          (2-D)
                                         =    Saunders et al (1-D)
  Accuracy factor for lattice sums       =   12.000

  Time limit = Infinity

  Maximum range for interatomic potentials =    100000.000000 Angstroms

  General interatomic potentials :

Atom  Types   Potential      Parameter       Value         Units   Cutoffs(Ang)
  1     2                                                            Min /  Max
S    c Zn   c Lennard       Lennard-Jones A  12210.478    eV*Ang^m  0.000 15.000
                            Lennard-Jones B  48.250824    eV*Ang^n
                            Exponent m        12          None
                            Exponent n         6          None

*  Output for configuration   1                                                *

  Components of energy :

  Interatomic potentials     =           0.42333498 eV
  Monopole - monopole (real) =          -2.15405514 eV
  Monopole - monopole (recip)=         -11.76213551 eV
  Monopole - monopole (total)=         -13.91619065 eV
  Total lattice energy       =         -13.49285567 eV
  Total lattice energy       =           -1301.8543 kJ/(mole unit cells)

  Born effective charge tensors :

  Atom             x           y             z
    1 Zn    x       1.1800      0.0000      0.0000
            y       0.0000      1.1800      0.0000
            z       0.0000      0.0000      1.1800
    2 S     x      -1.1800      0.0000      0.0000
            y       0.0000     -1.1800      0.0000
            z       0.0000      0.0000     -1.1800

  Elastic Constant Matrix: (Units=GPa)

  Indices      1         2         3         4         5         6
       1    100.3431   70.2826   64.4785    8.2082   -0.0000   -0.0000
       2     70.2826  100.3431   64.4785   -8.2082    0.0000   -0.0000
       3     64.4785   64.4785  106.1472   -0.0000   -0.0000   -0.0000
       4      8.2082   -8.2082   -0.0000    9.2261   -0.0000    0.0000
       5     -0.0000    0.0000   -0.0000   -0.0000    9.2261    8.2082
       6     -0.0000   -0.0000   -0.0000    0.0000    8.2082   15.0302

  Elastic Constant Tensor Eigenvalues: (Units=GPa)

     1 =     3.4220     2 =     4.0463     3 =    20.8343
     4 =    35.2404     5 =    41.6687     6 =   235.1043

  Elastic Compliance Matrix: (Units=1/GPa)

  Indices      1         2         3         4         5         6
       1    0.037769 -0.026934 -0.006582 -0.057564 -0.000000 -0.000000
       2   -0.026934  0.037769 -0.006582  0.057564 -0.000000  0.000000
       3   -0.006582 -0.006582  0.017417  0.000000  0.000000 -0.000000
       4   -0.057564  0.057564  0.000000  0.210814  0.000000 -0.000000
       5   -0.000000 -0.000000  0.000000  0.000000  0.210814 -0.115129
       6   -0.000000  0.000000 -0.000000 -0.000000 -0.115129  0.129406

  Mechanical properties :

  Convention :                    Reuss         Voigt         Hill
  Bulk  Modulus (GPa)     =      78.36811      78.36811      78.36811
  Shear Modulus (GPa)     =       6.86400      13.86943      10.36671
  Velocity S-wave (km/s)  =       1.31026       1.86251       1.61024
  Velocity P-wave (km/s)  =       4.67867       4.92201       4.80188
  Compressibility (1/GPa) =    0.01276029
  Stress axis :                     x             y             z
  Youngs Moduli (GPa)     =      26.47665      26.47665      57.41506
  Poissons Ratio (x)      =                     0.71312       0.37789
  Poissons Ratio (y)      =       0.71312                     0.37789
  Poissons Ratio (z)      =       0.17426       0.17426

  Piezoelectric Strain Matrix: (Units=C/m**2)

  Indices      1         2         3         4         5         6
       x     0.00000   0.00000   0.00000   0.00000   4.34492   6.14464
       y     6.14464  -6.14464   0.00000   4.34492   0.00000   0.00000
       z     4.34492   4.34492  -8.68984   0.00000   0.00000   0.00000

  Piezoelectric Stress Matrix: (Units=10**-11 C/N)

  Indices      1         2         3         4         5         6
       x    -0.00000   0.00000   0.00000   0.00000  20.85460  29.49286
       y    14.74643 -14.74643   0.00000  20.85460   0.00000  -0.00000
       z    10.42730  10.42730 -20.85460  -0.00000  -0.00000   0.00000

  Static dielectric constant tensor :

              x         y         z
       x     1.70693  -0.00000  -0.00000
       y    -0.00000   1.70693  -0.00000
       z    -0.00000  -0.00000   1.70693

  Static refractive indices :

    1 =    1.30650      2 =    1.30650      3 =    1.30650

  Phonon Calculation :

  K direction for n-a correction at gamma =  1.00000  0.00000  0.00000

  Number of k points for this configuration =       62

  K point      1 =   0.000000  0.000000  0.000000  Weight =    0.016

  Frequencies (cm-1) [NB: Negative implies an imaginary mode]:

[...]

  K point     62 =   0.500000  0.500000  0.500000  Weight =    0.008

  Frequencies (cm-1) [NB: Negative implies an imaginary mode]:

   51.54   51.54  244.48  334.98  334.98  350.70

  Phonon properties (per mole of unit cells): Temperature =      0.000 K
  Zero point energy            =        0.081646 eV

  Phonon density of states :

 Frequency (cm-1) Density of States
    0.00000 |****                                                          0.019
    6.80974 |****                                                          0.022
   13.61947 |*****                                                         0.027
   20.42921 |****                                                          0.022
   27.23895 |*****                                                         0.027
   34.04869 |****                                                          0.019
   40.85842 |********                                                      0.041
   47.66816 |********                                                      0.038
   54.47790 |****                                                          0.019
   61.28763 |**                                                            0.014
   68.09737 |**                                                            0.014
   74.90711 |**                                                            0.014
   81.71685 |****                                                          0.022
   88.52658 |****                                                          0.019
   95.33632 |*******                                                       0.033
  102.14606 |*                                                             0.008
  108.95579 |*                                                             0.008
  115.76553 |*                                                             0.005
  122.57527 |*                                                             0.008
  129.38500 |                                                              0.003
  136.19474 |*                                                             0.008
  143.00448 |*                                                             0.008
  149.81422 |*                                                             0.008
  156.62395 |**                                                            0.011
  163.43369 |                                                              0.003
  170.24343 |*                                                             0.008
  177.05316 |                                                              0.000
  183.86290 |*                                                             0.008
  190.67264 |                                                              0.003
  197.48238 |*                                                             0.005
  204.29211 |*                                                             0.005
  211.10185 |*                                                             0.008
  217.91159 |**                                                            0.011
  224.72132 |**                                                            0.011
  231.53106 |*                                                             0.008
  238.34080 |**                                                            0.010
  245.15054 |                                                              0.000
  251.96027 |                                                              0.000
  258.77001 |                                                              0.000
  265.57975 |                                                              0.000
  272.38948 |                                                              0.000
  279.19922 |                                                              0.000
  286.00896 |                                                              0.000
  292.81870 |                                                              0.000
  299.62843 |                                                              0.000
  306.43817 |                                                              0.000
  313.24791 |**                                                            0.011
  320.05764 |*                                                             0.005
  326.86738 |************                                                  0.057
  333.67712 |************************************************************  0.272
  340.48685 |****                                                          0.019
  347.29659 |***                                                           0.015
  354.10633 |**                                                            0.011
  360.91607 |*                                                             0.005
  367.72580 |*                                                             0.005
  374.53554 |*                                                             0.005
  381.34528 |*                                                             0.008
  388.15501 |*                                                             0.005
  394.96475 |*                                                             0.008
  401.77449 |*                                                             0.008
  408.58423 |*                                                             0.008
  415.39396 |**                                                            0.011
  422.20370 |**                                                            0.014
  429.01344 |*******                                                       0.033

  Phonon density of states written on channel 17

  XYZ File written as gulp.xyz

  Time to end of properties =       0.0280 seconds

  Timing analysis for GULP :

  Task / Subroutine                                          Time (Seconds)
  Calculation of reciprocal space energy and derivatives          0.0080
  Calculation of real space energy and derivatives                0.0080
  Calculation of phonons                                          0.0240

  Job Finished at 14:33.40 19th June       2019