  Job Started  at 15:00.31 19th June       2019

  Number of CPUs =     1

  Total number of configurations input =      1

*  Input for Configuration =   1                                               *

  Formula = ZnS

  Number of irreducible atoms/shells =       2

  Total number atoms/shells =       2

  Dimensionality = 3               :  Bulk

  Cartesian lattice vectors (Angstroms) :

        3.854000    0.000000    0.000000
        1.927000    3.337662    0.000000
        1.927000    1.112554    3.146778

  Cell parameters (Angstroms/Degrees):

  a =       3.8540    alpha =  60.0000
  b =       3.8540    beta  =  60.0000
  c =       3.8540    gamma =  60.0000

  Initial cell volume =          40.478101 Angs**3

  Shrinking factors =      1     1     1

  Temperature of configuration =  0.000     K

  Pressure of configuration =         0.000 GPa

  Fractional coordinates of asymmetric unit :

   No.  Atomic       x           y          z         Charge      Occupancy
        Label      (Frac)      (Frac)     (Frac)        (e)         (Frac)
      1 Zn    c    0.000000    0.000000    0.000000     2.00000    1.000000
      2 S     c    0.250000    0.250000    0.250000    -2.00000    1.000000

  Brillouin zone sampling points :

  Point number          x          y          z            Weight
        1           0.000000   0.000000   0.000000     0.01626016
        2           0.025000   0.000000   0.025000     0.01626016
        3           0.050000   0.000000   0.050000     0.01626016
        4           0.075000   0.000000   0.075000     0.01626016
        5           0.100000   0.000000   0.100000     0.01626016
        6           0.125000   0.000000   0.125000     0.01626016
        7           0.150000   0.000000   0.150000     0.01626016
        8           0.175000   0.000000   0.175000     0.01626016
        9           0.200000   0.000000   0.200000     0.01626016
       10           0.225000   0.000000   0.225000     0.01626016
       11           0.250000   0.000000   0.250000     0.01626016
       12           0.275000   0.000000   0.275000     0.01626016
       13           0.300000   0.000000   0.300000     0.01626016
       14           0.325000   0.000000   0.325000     0.01626016
       15           0.350000   0.000000   0.350000     0.01626016
       16           0.375000   0.000000   0.375000     0.01626016
       17           0.400000   0.000000   0.400000     0.01626016
       18           0.425000   0.000000   0.425000     0.01626016
       19           0.450000   0.000000   0.450000     0.01626016
       20           0.475000   0.000000   0.475000     0.01626016
       21           0.500000   0.000000   0.500000     0.01626016
       22           0.525000   0.050000   0.525000     0.01626016
       23           0.550000   0.100000   0.550000     0.01626016
       24           0.575000   0.150000   0.575000     0.01626016
       25           0.600000   0.200000   0.600000     0.01626016
       26           0.625000   0.250000   0.625000     0.01626016
       27           0.650000   0.300000   0.650000     0.01626016
       28           0.675000   0.350000   0.675000     0.01626016
       29           0.700000   0.400000   0.700000     0.01626016
       30           0.725000   0.450000   0.725000     0.01626016
       31           0.750000   0.500000   0.750000     0.01626016
       32           0.775000   0.550000   0.775000     0.01626016
       33           0.800000   0.600000   0.800000     0.01626016
       34           0.825000   0.650000   0.825000     0.01626016
       35           0.850000   0.700000   0.850000     0.01626016
       36           0.875000   0.750000   0.875000     0.01626016
       37           0.900000   0.800000   0.900000     0.01626016
       38           0.925000   0.850000   0.925000     0.01626016
       39           0.950000   0.900000   0.950000     0.01626016
       40           0.975000   0.950000   0.975000     0.01626016
       41           0.000000   0.000000   0.000000     0.01626016
       42           0.975000   0.975000   0.975000     0.01626016
       43           0.950000   0.950000   0.950000     0.01626016
       44           0.925000   0.925000   0.925000     0.01626016
       45           0.900000   0.900000   0.900000     0.01626016
       46           0.875000   0.875000   0.875000     0.01626016
       47           0.850000   0.850000   0.850000     0.01626016
       48           0.825000   0.825000   0.825000     0.01626016
       49           0.800000   0.800000   0.800000     0.01626016
       50           0.775000   0.775000   0.775000     0.01626016
       51           0.750000   0.750000   0.750000     0.01626016
       52           0.725000   0.725000   0.725000     0.01626016
       53           0.700000   0.700000   0.700000     0.01626016
       54           0.675000   0.675000   0.675000     0.01626016
       55           0.650000   0.650000   0.650000     0.01626016
       56           0.625000   0.625000   0.625000     0.01626016
       57           0.600000   0.600000   0.600000     0.01626016
       58           0.575000   0.575000   0.575000     0.01626016
       59           0.550000   0.550000   0.550000     0.01626016
       60           0.525000   0.525000   0.525000     0.01626016
       61           0.500000   0.500000   0.500000     0.01626016
       62           0.500000   0.500000   0.500000     0.00813008

*  General input information                                                   *

  Species output for all configurations :

  Species    Type    Atomic    Atomic    Charge       Radii (Angs)     Library
                     Number     Mass       (e)     Cova   Ionic  VDW   Symbol
    Zn       Core       30      65.39   2.000000   1.450  0.000  2.160
    S        Core       16      32.07  -2.000000   1.020  0.000  1.700

  Lattice summation method               =    Ewald          (3-D)
                                         =    Parry          (2-D)
                                         =    Saunders et al (1-D)
  Accuracy factor for lattice sums       =   12.000

  Time limit = Infinity

  Bond-order two-body potentials :

Atom  Types                 A                 B                  Cutoffs(Ang)
  1     2                 ZetaA             ZetaB                Taper    Max
S    c Zn   c          2716.6113200000        97.7050600000     0.1500   3.0590
                          2.482444000         0.9161870000

  Bond-order attractive :

Atom    Type         Alpha            N             Lambda          M
 1/2     1/2           C              D                H
Zn   c  Theta       0.00000100       1.11399000       0.00000000       3
S    c         103291.95774300      21.24210600      -0.61172600

*  Output for configuration   1                                                *

  Components of energy :

  Interatomic potentials     =           0.00000000 eV
  Bond-order potentials      =          -1.30379295 eV
  Monopole - monopole (real) =          -6.18803544 eV
  Monopole - monopole (recip)=         -33.78953034 eV
  Monopole - monopole (total)=         -39.97756578 eV
  Total lattice energy       =         -41.28135873 eV
  Total lattice energy       =           -3983.0201 kJ/(mole unit cells)

  Born effective charge tensors :

  Atom             x           y             z
    1 Zn    x       2.0000      0.0000      0.0000
            y       0.0000      2.0000      0.0000
            z       0.0000      0.0000      2.0000
    2 S     x      -2.0000      0.0000      0.0000
            y       0.0000     -2.0000      0.0000
            z       0.0000      0.0000     -2.0000

  Elastic Constant Matrix: (Units=GPa)

  Indices      1         2         3         4         5         6
       1    111.3615   23.6878   34.2757  -14.9736    0.0000    0.0000
       2     23.6878  111.3615   34.2757   14.9736    0.0000    0.0000
       3     34.2757   34.2757  100.7735   -0.0000   -0.0000   -0.0000
       4    -14.9736   14.9736   -0.0000   54.4248    0.0000    0.0000
       5      0.0000    0.0000   -0.0000    0.0000   54.4248  -14.9736
       6      0.0000    0.0000   -0.0000    0.0000  -14.9736   43.8368

  Elastic Constant Tensor Eigenvalues: (Units=GPa)

     1 =    33.2489     2 =    44.1273     3 =    65.0127
     4 =    66.4978     5 =    97.9712     6 =   169.3250

  Elastic Compliance Matrix: (Units=1/GPa)

  Indices      1         2         3         4         5         6
       1    0.010769 -0.001820 -0.003044  0.003464 -0.000000 -0.000000
       2   -0.001820  0.010769 -0.003044 -0.003464  0.000000  0.000000
       3   -0.003044 -0.003044  0.011994  0.000000  0.000000  0.000000
       4    0.003464 -0.003464  0.000000  0.020280 -0.000000 -0.000000
       5   -0.000000  0.000000  0.000000 -0.000000  0.020280  0.006927
       6   -0.000000  0.000000  0.000000 -0.000000  0.006927  0.025178

  Mechanical properties :

  Convention :                    Reuss         Voigt         Hill
  Bulk  Modulus (GPa)     =      56.44166      56.44166      56.44166
  Shear Modulus (GPa)     =      41.32512      45.95442      43.63977
  Velocity S-wave (km/s)  =       3.21496       3.39026       3.30377
  Velocity P-wave (km/s)  =       5.28187       5.42604       5.35444
  Compressibility (1/GPa) =    0.01771741
  Stress axis :                     x             y             z
  Youngs Moduli (GPa)     =      92.85527      92.85527      83.37504
  Poissons Ratio (x)      =                     0.16895       0.25380
  Poissons Ratio (y)      =       0.16895                     0.25380
  Poissons Ratio (z)      =       0.28266       0.28266

  Piezoelectric Strain Matrix: (Units=C/m**2)

  Indices      1         2         3         4         5         6
       x     0.00000   0.00000  -0.00000   0.00000  -8.47378 -11.98373
       y   -11.98373  11.98373  -0.00000  -8.47378   0.00000   0.00000
       z    -8.47378  -8.47378  16.94756   0.00000   0.00000   0.00000

  Piezoelectric Stress Matrix: (Units=10**-11 C/N)

  Indices      1         2         3         4         5         6
       x     0.00000  -0.00000  -0.00000   0.00000 -25.48590 -36.04250
       y   -18.02125  18.02125  -0.00000 -25.48590   0.00000   0.00000
       z   -12.74295 -12.74295  25.48590   0.00000   0.00000   0.00000

  Static dielectric constant tensor :

              x         y         z
       x     5.15668  -0.00000  -0.00000
       y    -0.00000   5.15668  -0.00000
       z    -0.00000  -0.00000   5.15668

  Static refractive indices :

    1 =    2.27083      2 =    2.27083      3 =    2.27083

  Phonon Calculation :

  K direction for n-a correction at gamma =  1.00000  0.00000  0.00000

  Number of k points for this configuration =       62

  K point      1 =   0.000000  0.000000  0.000000  Weight =    0.016

  Frequencies (cm-1) [NB: Negative implies an imaginary mode]:

[...]

  K point     62 =   0.500000  0.500000  0.500000  Weight =    0.008

  Frequencies (cm-1) [NB: Negative implies an imaginary mode]:

  145.89  145.89  168.22  208.41  208.41  481.22

  Phonon properties (per mole of unit cells): Temperature =      0.000 K
  Zero point energy            =        0.078136 eV

  Phonon density of states :

 Frequency (cm-1) Density of States
    0.00000 |****                                                          0.005
    8.27315 |****************                                              0.019
   16.54630 |****************                                              0.019
   24.81946 |*************                                                 0.016
   33.09261 |****************                                              0.019
   41.36576 |********************                                          0.025
   49.63891 |******************                                            0.022
   57.91206 |******                                                        0.008
   66.18522 |*************************                                     0.030
   74.45837 |********************                                          0.025
   82.73152 |*************************                                     0.030
   91.00467 |***********************************************************   0.071
   99.27782 |******************                                            0.022
  107.55098 |***********                                                   0.014
  115.82413 |******************                                            0.022
  124.09728 |*************                                                 0.016
  132.37043 |****************                                              0.019
  140.64359 |******************************                                0.036
  148.91674 |****                                                          0.005
  157.18989 |******                                                        0.008
  165.46304 |************                                                  0.015
  173.73619 |**                                                            0.003
  182.00935 |**                                                            0.003
  190.28250 |**                                                            0.003
  198.55565 |******                                                        0.008
  206.82880 |********************************                              0.038
  215.10195 |******************************                                0.036
  223.37511 |**********************************************                0.055
  231.64826 |***********************************************************   0.071
  239.92141 |********************                                          0.025
  248.19456 |********************                                          0.025
  256.46771 |********************                                          0.025
  264.74087 |***********                                                   0.014
  273.01402 |********************                                          0.025
  281.28717 |***********************                                       0.027
  289.56032 |****                                                          0.005
  297.83347 |****                                                          0.005
  306.10663 |**                                                            0.003
  314.37978 |**                                                            0.003
  322.65293 |****                                                          0.005
  330.92608 |****                                                          0.005
  339.19924 |                                                              0.000
  347.47239 |                                                              0.000
  355.74554 |**                                                            0.003
  364.01869 |******                                                        0.008
  372.29184 |******                                                        0.008
  380.56500 |****                                                          0.005
  388.83815 |**                                                            0.003
  397.11130 |****                                                          0.005
  405.38445 |                                                              0.000
  413.65760 |****                                                          0.005
  421.93076 |**                                                            0.003
  430.20391 |**                                                            0.003
  438.47706 |**                                                            0.003
  446.75021 |****                                                          0.005
  455.02336 |**                                                            0.003
  463.29652 |**                                                            0.003
  471.56967 |****                                                          0.005
  479.84282 |***************                                               0.018
  488.11597 |***********                                                   0.014
  496.38912 |*********                                                     0.011
  504.66228 |*********                                                     0.011
  512.93543 |*************                                                 0.016
  521.20858 |******************************                                0.036

  Phonon density of states written on channel 17

  XYZ File written as gulp.xyz

  Time to end of properties =       0.0240 seconds

  Timing analysis for GULP :

  Task / Subroutine                                          Time (Seconds)
  Calculation of reciprocal space energy and derivatives          0.0200
  Calculation of phonons                                          0.0200

  Job Finished at 15:00.31 19th June       2019